(set-logic QF_S)
(declare-fun I () String)
(declare-fun K () String)
(declare-fun H () String)
(declare-fun G () String)
(declare-fun J () String)
(assert (= (str.++  "aaaaaaa" G "aaaaaaaaaa" G "aab" I "a" I I "a" I I I "ba" I I I "b" J K "ba")  (str.++  "a" G G "aa" H I "a" H I "ab" J J J "a" J J J "ab" K K K K "b" K K "baa") ))
(check-sat)
(get-model)
